#3x3_5_conGames# 22 2 31 1000000000
2 2 2 2 2 2 2 2 2 2 2 2 2 2 2 2 2 2 2 2 2 2 
1 0 0 2
0 0
1 265
1 1 0 2
0 0
1 935
1 2 0 2
0 0
1 565
1 3 0 2
0 0
1 285
1 4 0 2
0 0
1 705
1 5 0 2
0 0
1 675
1 6 0 2
0 0
1 225
1 7 0 2
0 0
1 725
1 8 0 2
0 0
1 965
1 9 0 2
0 0
1 595
1 10 0 2
0 0
1 995
1 11 0 2
0 0
1 125
1 12 0 2
0 0
1 185
1 13 0 2
0 0
1 115
1 14 0 2
0 0
1 155
1 15 0 2
0 0
1 245
1 16 0 2
0 0
1 455
1 17 0 2
0 0
1 525
1 18 0 2
0 0
1 675
1 19 0 2
0 0
1 865
1 20 0 2
0 0
1 385
1 21 0 2
0 0
1 765
8 0 1 2 3 20 10 13 17 0 256
1 0 0 0 1 0 0 0 0
0 0 0 0 1 0 0 0 10000
1 0 0 0 1 1 1 1 10000
0 1 1 1 0 1 0 1 10000
0 1 1 0 0 1 1 0 0
0 1 1 0 1 1 1 0 10000
1 1 1 1 1 1 0 1 10000
1 0 1 0 1 1 1 0 10000
0 0 1 0 1 1 1 0 10000
0 0 1 0 1 0 0 1 10000
1 0 0 0 0 0 1 0 0
0 1 0 0 0 1 1 0 10000
0 1 0 1 0 1 0 1 0
1 1 0 1 1 1 1 1 10000
1 0 1 1 0 0 0 0 10000
1 1 1 0 1 0 1 1 0
1 0 1 0 0 0 0 1 10000
0 0 1 0 0 1 0 0 0
1 1 1 0 1 1 0 0 10000
0 1 1 1 1 0 1 0 10000
1 1 0 1 0 0 1 0 10000
0 0 1 0 0 0 1 1 10000
0 0 0 0 0 1 0 1 10000
1 0 0 1 0 0 1 0 10000
1 0 1 0 1 1 0 0 0
0 1 0 1 1 1 0 1 10000
0 1 1 1 1 0 0 0 10000
1 0 1 0 1 0 1 1 10000
1 0 1 1 1 0 1 0 10000
1 0 0 1 1 1 1 1 10000
0 1 1 1 1 1 1 1 10000
0 0 1 1 0 1 1 0 0
1 1 0 0 0 0 1 0 10000
0 1 0 0 1 0 1 1 10000
1 0 0 1 1 0 0 0 10000
1 1 1 1 0 1 1 0 10000
0 0 0 0 1 1 0 1 10000
1 0 1 1 1 1 0 1 0
0 1 0 0 1 1 0 0 10000
0 1 1 1 0 0 1 0 10000
1 1 0 0 1 1 1 1 10000
0 0 1 1 1 1 1 0 10000
0 0 0 1 1 0 1 1 10000
1 1 0 0 1 0 0 0 10000
0 1 0 0 0 0 0 1 0
1 1 1 1 0 1 1 1 10000
0 1 0 1 0 0 0 0 10000
0 0 0 1 1 1 0 0 10000
1 0 1 1 0 1 0 1 10000
0 1 1 0 0 0 1 0 10000
0 1 0 1 0 1 1 1 10000
1 0 1 0 0 0 1 0 10000
1 1 1 0 1 0 0 1 10000
0 0 0 1 0 0 0 1 0
1 0 0 0 0 1 1 0 10000
1 0 0 1 0 1 0 1 0
0 0 0 0 0 0 0 0 0
1 1 1 0 0 1 1 1 0
0 1 0 1 1 0 1 0 0
0 1 0 0 1 1 0 1 10000
0 0 0 0 0 1 1 1 10000
0 1 1 0 1 0 0 0 10000
1 1 1 0 0 1 0 0 10000
0 0 1 1 0 0 1 1 0
1 1 0 1 0 1 1 0 10000
1 1 0 0 0 1 0 1 0
0 0 1 1 0 1 0 0 10000
1 1 1 1 1 0 0 0 10000
0 0 0 0 1 0 1 0 10000
1 0 0 1 1 1 0 1 10000
1 1 0 1 1 0 0 0 10000
1 1 1 0 1 1 1 0 0
1 0 1 1 1 0 0 0 10000
0 1 0 0 1 0 0 1 10000
0 1 1 1 0 1 1 1 0
0 0 1 1 1 0 0 1 0
1 0 1 1 1 1 1 1 10000
1 0 1 1 0 1 1 1 0
1 0 0 0 1 0 1 1 10000
1 1 0 0 1 1 0 1 10000
0 1 0 0 0 1 0 0 0
1 0 0 0 1 1 0 0 10000
0 0 0 1 1 0 0 1 10000
1 0 1 1 0 0 1 0 10000
0 1 0 0 0 0 1 1 10000
0 1 1 0 0 1 0 1 0
1 1 1 0 0 0 0 0 10000
1 1 1 1 1 1 1 0 10000
1 1 1 1 1 1 1 1 0
1 1 0 1 1 0 1 1 0
0 0 1 0 1 0 1 0 10000
1 0 0 0 0 0 0 1 0
0 0 0 1 0 1 0 0 0
1 0 0 1 0 0 0 0 10000
1 1 0 1 1 1 0 0 10000
0 0 0 1 0 0 1 1 10000
1 0 0 1 0 1 1 1 10000
0 0 1 0 0 1 1 1 10000
0 1 1 0 1 1 0 1 10000
1 0 1 1 1 0 1 1 0
1 0 1 0 1 1 1 1 10000
1 1 0 1 0 0 0 1 10000
0 0 1 0 0 0 0 0 10000
1 1 0 0 0 0 0 0 10000
0 0 1 1 0 0 0 1 10000
1 0 0 1 1 0 1 0 0
0 1 0 1 1 1 1 0 10000
1 1 0 0 0 1 1 1 10000
0 1 0 0 1 1 1 0 10000
1 0 1 0 1 0 0 0 10000
1 1 1 1 0 0 1 1 10000
0 1 1 1 1 1 0 0 10000
0 0 1 1 1 1 0 0 0
1 1 1 1 0 1 0 0 10000
1 1 0 0 1 0 1 0 0
0 0 1 1 1 0 1 1 10000
0 0 0 1 1 1 1 0 10000
1 0 0 0 1 0 0 1 10000
0 1 1 1 0 0 0 1 10000
0 1 1 0 0 0 0 0 10000
0 0 1 0 1 1 0 1 10000
0 1 1 0 0 1 1 1 10000
1 0 0 0 0 1 0 0 0
0 1 0 1 0 0 1 1 0
0 1 1 1 1 0 1 1 0
1 0 0 0 0 0 1 1 10000
1 0 1 0 0 1 0 1 0
0 1 0 1 0 1 0 0 10000
0 1 1 0 1 0 1 0 0
1 1 1 0 1 0 1 0 10000
1 1 0 1 0 1 0 0 10000
0 0 1 0 0 1 0 1 10000
0 0 0 0 0 0 1 1 10000
0 1 0 1 1 0 0 1 0
1 1 0 1 0 0 1 1 10000
0 0 0 0 0 1 0 0 10000
0 1 1 0 0 0 1 1 0
0 0 0 1 0 1 1 0 10000
1 0 1 0 1 1 0 1 10000
1 0 1 0 0 0 1 1 0
1 1 1 0 0 0 1 1 10000
0 1 1 1 1 0 0 1 10000
1 1 1 1 0 0 0 1 10000
0 0 0 0 1 0 0 1 10000
1 0 0 1 1 1 1 0 10000
1 0 0 0 1 1 1 0 10000
0 1 0 0 1 0 1 0 10000
0 1 1 1 0 1 0 0 10000
1 0 1 1 1 1 0 0 10000
1 1 1 1 1 1 0 0 10000
0 1 1 1 0 0 1 1 10000
0 0 1 0 1 0 0 0 0
1 1 0 0 1 1 1 0 10000
0 1 0 0 0 1 1 1 10000
1 1 0 1 1 0 0 1 10000
1 1 0 1 1 1 1 0 0
0 0 0 1 1 0 1 0 10000
1 0 1 1 0 0 0 1 10000
0 1 0 0 0 0 0 0 10000
0 0 0 0 1 1 1 0 10000
0 1 0 1 0 0 0 1 10000
1 1 1 1 1 0 1 1 10000
1 1 1 0 1 1 0 1 0
1 0 1 0 0 1 1 1 10000
0 0 1 0 0 0 1 0 0
1 0 0 1 0 0 1 1 0
0 1 0 1 1 1 0 0 0
0 0 0 1 0 0 0 0 10000
1 0 0 1 0 1 0 0 10000
0 0 0 0 0 0 0 1 10000
1 0 1 0 1 0 1 0 0
0 1 0 1 1 0 1 1 10000
0 1 1 1 1 1 1 0 0
1 1 1 0 0 1 0 1 10000
1 1 0 0 0 0 1 1 0
0 0 1 1 0 0 1 0 10000
1 0 0 1 1 0 0 1 0
0 0 0 0 1 1 0 0 10000
1 1 0 0 0 1 0 0 10000
0 0 1 0 1 1 1 1 10000
0 0 0 0 1 0 1 1 10000
1 1 1 0 1 1 1 1 10000
1 1 1 1 0 0 0 0 10000
0 0 1 1 1 1 1 1 10000
1 0 1 1 1 0 0 1 10000
1 1 0 0 1 0 0 1 0
0 0 1 1 1 0 0 0 10000
0 0 0 1 1 1 0 1 10000
1 0 0 0 1 0 1 0 10000
1 0 1 1 0 1 0 0 10000
0 1 0 0 0 1 0 1 10000
0 1 0 1 0 1 1 0 0
1 0 1 0 0 0 0 0 10000
1 0 1 1 0 0 1 1 10000
0 1 1 0 0 1 0 0 10000
1 1 1 0 1 0 0 0 10000
1 0 0 0 0 1 1 1 10000
1 1 0 1 1 0 1 0 10000
1 0 0 0 0 0 0 0 10000
0 0 0 0 0 0 1 0 10000
0 0 0 1 0 1 0 1 10000
0 0 0 0 0 1 1 0 10000
1 0 0 1 0 0 0 1 10000
0 1 1 0 1 0 0 1 0
1 0 1 0 1 0 0 1 0
1 0 1 1 0 1 1 0 10000
1 1 0 1 0 1 1 1 0
0 0 1 0 0 1 1 0 10000
0 0 1 1 0 1 0 1 0
1 0 0 1 1 1 0 0 0
1 1 0 1 0 0 0 0 10000
1 1 0 0 0 0 0 1 10000
0 1 0 0 1 0 0 0 0
1 0 0 1 1 0 1 1 10000
1 1 1 1 1 0 0 1 10000
1 0 1 1 1 1 1 0 0
0 1 0 0 1 1 1 1 10000
1 1 1 1 0 0 1 0 10000
1 1 0 0 1 1 0 0 0
0 0 1 1 1 1 0 1 10000
1 1 1 0 0 0 0 1 10000
1 0 0 0 1 1 0 1 10000
0 0 0 1 1 0 0 0 0
1 1 0 0 1 0 1 1 10000
0 1 0 0 0 0 1 0 0
1 1 1 0 0 0 1 0 10000
0 0 0 1 1 1 1 1 10000
0 1 1 1 0 0 0 0 10000
0 0 1 0 1 0 1 1 10000
0 1 1 0 0 0 0 1 10000
1 1 0 1 1 1 0 1 0
0 0 1 0 1 1 0 0 10000
0 0 0 1 0 0 1 0 0
1 0 0 0 0 1 0 1 10000
1 0 0 1 0 1 1 0 0
0 1 0 1 0 0 1 0 10000
0 1 1 0 1 1 0 0 0
1 0 1 0 0 1 0 0 10000
0 0 1 0 0 0 0 1 0
0 1 1 0 1 0 1 1 10000
0 1 1 1 0 1 1 0 10000
0 0 1 1 0 0 0 0 10000
0 1 0 1 1 1 1 1 10000
1 0 1 0 0 1 1 0 0
1 1 0 1 0 1 0 1 10000
1 1 0 0 0 1 1 0 0
0 0 1 1 0 1 1 1 10000
0 0 0 0 1 1 1 1 10000
0 1 0 1 1 0 0 0 10000
1 1 1 1 1 0 1 0 10000
0 1 1 1 1 1 0 1 0
1 1 1 0 0 1 1 0 10000
1 1 1 1 0 1 0 1 10000
0 0 0 1 0 1 1 1 10000
0 0 1 1 1 0 1 0 0
0 1 1 0 1 1 1 1 10000
4 4 5 7 18 0 16
1 0 1 1 10000
1 1 0 1 10000
1 0 0 0 10000
0 1 1 0 0
1 0 1 0 0
0 0 0 1 10000
0 0 1 1 10000
1 0 0 1 0
0 1 0 0 10000
1 1 1 1 0
0 0 0 0 0
0 0 1 0 10000
0 1 0 1 0
1 1 1 0 10000
0 1 1 1 10000
1 1 0 0 10000
2 6 11 0 4
0 1 0
1 0 10000
0 0 10000
1 1 10000
6 7 8 9 4 14 16 0 64
1 0 0 1 1 1 10000
0 1 0 1 1 0 10000
0 1 1 1 0 1 0
1 1 0 0 1 0 10000
0 0 1 0 1 0 0
0 1 1 0 0 0 10000
1 0 0 0 0 0 10000
0 1 1 1 1 1 10000
1 0 0 1 0 0 0
1 1 1 1 1 0 10000
0 0 1 0 0 1 0
0 1 1 0 1 1 0
0 0 1 1 0 0 0
0 1 1 1 0 0 10000
1 0 1 1 0 1 0
0 0 1 0 1 1 10000
1 1 1 0 1 0 10000
0 1 1 0 0 1 10000
1 0 1 0 0 0 10000
0 0 1 1 1 1 10000
1 1 1 1 0 0 10000
1 0 1 1 1 1 10000
1 0 0 1 1 0 10000
0 0 1 0 0 0 10000
1 1 1 0 0 1 10000
0 1 1 0 1 0 10000
1 0 1 0 1 1 0
0 0 1 1 0 1 10000
0 0 0 1 1 0 10000
1 0 1 1 0 0 10000
1 1 1 0 1 1 10000
1 0 1 0 0 1 10000
1 1 1 1 0 1 10000
0 0 1 1 1 0 10000
0 0 0 1 0 1 10000
0 0 0 0 0 0 0
1 1 1 0 0 0 10000
1 0 1 0 1 0 10000
0 1 0 0 1 0 0
0 0 0 1 1 1 10000
1 1 0 1 1 0 0
0 0 0 0 1 1 10000
1 0 0 1 0 1 10000
0 1 0 0 0 1 0
0 0 0 1 0 0 10000
1 1 0 1 0 1 0
0 1 0 1 0 0 0
0 0 0 0 0 1 10000
1 1 0 0 0 0 10000
0 1 0 0 1 1 10000
1 0 0 0 1 0 0
1 1 0 1 1 1 10000
0 1 0 1 1 1 10000
0 0 0 0 1 0 10000
1 1 0 0 1 1 0
0 1 0 0 0 0 10000
1 0 0 0 0 1 0
1 1 0 1 0 0 10000
0 1 0 1 0 1 10000
0 1 1 1 1 0 0
1 1 0 0 0 1 10000
1 0 1 1 1 0 0
1 1 1 1 1 1 0
1 0 0 0 1 1 10000
6 10 11 12 1 6 19 0 64
1 0 0 1 1 1 10000
0 1 0 1 1 0 10000
0 1 1 1 0 1 0
1 1 0 0 1 0 10000
0 0 1 0 1 0 0
0 1 1 0 0 0 10000
1 0 0 0 0 0 10000
0 1 1 1 1 1 10000
1 0 0 1 0 0 0
1 1 1 1 1 0 10000
0 0 1 0 0 1 0
0 1 1 0 1 1 0
0 0 1 1 0 0 0
0 1 1 1 0 0 10000
1 0 1 1 0 1 0
0 0 1 0 1 1 10000
1 1 1 0 1 0 10000
0 1 1 0 0 1 10000
1 0 1 0 0 0 10000
0 0 1 1 1 1 10000
1 1 1 1 0 0 10000
1 0 1 1 1 1 10000
1 0 0 1 1 0 10000
0 0 1 0 0 0 10000
1 1 1 0 0 1 10000
0 1 1 0 1 0 10000
1 0 1 0 1 1 0
0 0 1 1 0 1 10000
0 0 0 1 1 0 10000
1 0 1 1 0 0 10000
1 1 1 0 1 1 10000
1 0 1 0 0 1 10000
1 1 1 1 0 1 10000
0 0 1 1 1 0 10000
0 0 0 1 0 1 10000
0 0 0 0 0 0 0
1 1 1 0 0 0 10000
1 0 1 0 1 0 10000
0 1 0 0 1 0 0
0 0 0 1 1 1 10000
1 1 0 1 1 0 0
0 0 0 0 1 1 10000
1 0 0 1 0 1 10000
0 1 0 0 0 1 0
0 0 0 1 0 0 10000
1 1 0 1 0 1 0
0 1 0 1 0 0 0
0 0 0 0 0 1 10000
1 1 0 0 0 0 10000
0 1 0 0 1 1 10000
1 0 0 0 1 0 0
1 1 0 1 1 1 10000
0 1 0 1 1 1 10000
0 0 0 0 1 0 10000
1 1 0 0 1 1 0
0 1 0 0 0 0 10000
1 0 0 0 0 1 0
1 1 0 1 0 0 10000
0 1 0 1 0 1 10000
0 1 1 1 1 0 0
1 1 0 0 0 1 10000
1 0 1 1 1 0 0
1 1 1 1 1 1 0
1 0 0 0 1 1 10000
4 13 14 2 8 0 16
1 0 1 1 10000
1 1 0 1 10000
1 0 0 0 10000
0 1 1 0 0
1 0 1 0 0
0 0 0 1 10000
0 0 1 1 10000
1 0 0 1 0
0 1 0 0 10000
1 1 1 1 0
0 0 0 0 0
0 0 1 0 10000
0 1 0 1 0
1 1 1 0 10000
0 1 1 1 10000
1 1 0 0 10000
4 15 16 21 9 0 16
1 0 1 1 10000
1 1 0 1 0
1 0 0 0 0
0 1 1 0 10000
1 0 1 0 10000
0 0 0 1 10000
0 0 1 1 10000
1 0 0 1 10000
0 1 0 0 0
1 1 1 1 10000
0 0 0 0 10000
0 0 1 0 10000
0 1 0 1 10000
1 1 1 0 0
0 1 1 1 10000
1 1 0 0 10000
6 17 18 19 3 5 12 0 64
1 0 0 1 1 1 10000
0 1 0 1 1 0 10000
0 1 1 1 0 1 0
1 1 0 0 1 0 10000
0 0 1 0 1 0 0
0 1 1 0 0 0 10000
1 0 0 0 0 0 10000
0 1 1 1 1 1 10000
1 0 0 1 0 0 0
1 1 1 1 1 0 10000
0 0 1 0 0 1 0
0 1 1 0 1 1 0
0 0 1 1 0 0 0
0 1 1 1 0 0 10000
1 0 1 1 0 1 0
0 0 1 0 1 1 10000
1 1 1 0 1 0 10000
0 1 1 0 0 1 10000
1 0 1 0 0 0 10000
0 0 1 1 1 1 10000
1 1 1 1 0 0 10000
1 0 1 1 1 1 10000
1 0 0 1 1 0 10000
0 0 1 0 0 0 10000
1 1 1 0 0 1 10000
0 1 1 0 1 0 10000
1 0 1 0 1 1 0
0 0 1 1 0 1 10000
0 0 0 1 1 0 10000
1 0 1 1 0 0 10000
1 1 1 0 1 1 10000
1 0 1 0 0 1 10000
1 1 1 1 0 1 10000
0 0 1 1 1 0 10000
0 0 0 1 0 1 10000
0 0 0 0 0 0 0
1 1 1 0 0 0 10000
1 0 1 0 1 0 10000
0 1 0 0 1 0 0
0 0 0 1 1 1 10000
1 1 0 1 1 0 0
0 0 0 0 1 1 10000
1 0 0 1 0 1 10000
0 1 0 0 0 1 0
0 0 0 1 0 0 10000
1 1 0 1 0 1 0
0 1 0 1 0 0 0
0 0 0 0 0 1 10000
1 1 0 0 0 0 10000
0 1 0 0 1 1 10000
1 0 0 0 1 0 0
1 1 0 1 1 1 10000
0 1 0 1 1 1 10000
0 0 0 0 1 0 10000
1 1 0 0 1 1 0
0 1 0 0 0 0 10000
1 0 0 0 0 1 0
1 1 0 1 0 0 10000
0 1 0 1 0 1 10000
0 1 1 1 1 0 0
1 1 0 0 0 1 10000
1 0 1 1 1 0 0
1 1 1 1 1 1 0
1 0 0 0 1 1 10000
4 20 21 0 15 0 16
1 0 1 1 10000
1 1 0 1 10000
1 0 0 0 10000
0 1 1 0 0
1 0 1 0 0
0 0 0 1 10000
0 0 1 1 10000
1 0 0 1 0
0 1 0 0 10000
1 1 1 1 0
0 0 0 0 0
0 0 1 0 10000
0 1 0 1 0
1 1 1 0 10000
0 1 1 1 10000
1 1 0 0 10000
